17	4
24	25	28	23	
0	0	0	0	0	3	2	3	4	
2	10	6	4	0	3	9	11	12	
2	1	2	7	0	3	7	10	17	
8	3	6	2	1	3	5	10	17	
1	9	8	5	5	3	6	17	17	
150	3	0	0	7	2	17	17	
250	0	2	0	1	3	8	17	17	
125	0	0	4	2	2	9	14	
25	8	8	0	6	2	17	17	
75	5	0	0	0	3	13	16	17	
100	9	1	10	8	3	17	17	17	
250	10	4	4	6	3	17	17	17	
8	0	3	1	2	3	15	17	17	
1	2	1	1	0	2	17	17	
8	3	9	0	2	2	17	17	
6	6	5	9	3	2	17	17	
0	0	0	0	0	0	
